17 965
525 7 504 7 362 7 209 9 25 11 818 15 619 21
525 7 445 7 286 10
529 7 485 7 272 7 90 9 798 11 593 18
529 7 485 7 272 7 90 9 798 11 593 18
535 8 494 8 321 11
525 7 482 7 367 7 213 9 32 11 824 18
525 7 445 7 357 7 195 9 48 11 872 15 715 22
525 7 446 7 267 7 66 9 891 11 731 18
525 7 479 7 355 7 106 9 927 13
525 7 445 7 357 7 195 9 48 11 872 15 714 22
525 7 445 7 357 7 195 9 48 11 872 15 714 22
532 7
532 7
532 7
532 7
532 7
532 7
